files/upTests/tuples_nested6/0001.eprime.solution
language ESSENCE' 1.0
$ minion Nodes: 2
$ minion TotalTime: 0.000542
$ Savile Row TotalTime: 0.172
letting y_tuple1 be 1
letting y_tuple3 be 4
letting y_tuple2_Explicit_tuple1 be [10, 11]
letting y_tuple2_Explicit_tuple2 be [12, 13]
